experiment/data/lkh-res/Vrp-Set-P-n16/Vrp-Set-P-n16-lkh/0.lkh1.vrp
NAME : 0
COMMENT : CVRP Instance
TYPE : CVRP
DIMENSION : 16
EDGE_WEIGHT_TYPE : EUC_2D
CAPACITY : 35
NODE_COORD_SECTION
1	3000	4000
2	3700	5200
3	4900	4900
4	5200	6400
5	3100	6200
6	5200	3300
7	4200	4100
8	5200	4100
9	5700	5800
10	6200	4200
11	4200	5700
12	2700	6800
13	4300	6700
14	5800	4800
15	5800	2700
16	3700	6900
DEMAND_SECTION
1	0
2	19
3	30
4	16
5	23
6	11
7	31
8	15
9	28
10	8
11	8
12	7
13	14
14	6
15	19
16	11
DEPOT_SECTION
1
-1
EOF
