experiment/data/lkh-res/Vrp-Set-P-n16/Vrp-Set-P-n16-lkh/0.lkh1.tour
NAME : 0.45131.tour
COMMENT : Length = 45131
COMMENT : Found by LKH-3 [Keld Helsgaun] Tue Apr  9 02:35:27 2024
TYPE : TOUR
DIMENSION : 23
TOUR_SECTION
1
2
17
14
9
22
12
5
19
3
18
11
13
16
20
8
15
21
6
10
4
23
7
-1
EOF
